QBPP_HJ-_25_025_20_3
25 60 1551
2 15 47 46 20 24 11 46 41 2 11 5 50 49 49 43 10 27 5 6 30 17 10 16 9
     0     0     0     0     0     0     0     0   -71     0   -39     0   -38   -55     0     0     0     0   -95   -81   -38     0   -56     0     0
     0     0     0     0    -9     0     0     0     0     0     0     0     0     0     0   -45     0   -26     0     0     0     0     0     0     0
     0     0     0     0     0     0     0   -18     0     0     0     0     0     0     0     0     0     0     0     0     0     0   -14     0   -64
     0     0     0     0   -55     0     0     0     0   -81     0     0     0     0     0     0     0     0     0   -50     0     0     0     0     0
     0    -9     0   -55     0     0     0   -37     0     0     0   -74     0     0     0     0     0     0   -97     0    -1     0     0     0     0
     0     0     0     0     0     0     0     0     0     0     0     0     0     0     0     0   -61   -82     0   -41     0     0     0     0     0
     0     0     0     0     0     0     0     0   -42   -73     0   -95   -35     0     0     0    -6   -80     0     0     0     0     0     0     0
     0     0   -18     0   -37     0     0     0     0     0   -52     0   -75   -23   -80   -93     0     0     0     0     0   -42     0     0     0
   -71     0     0     0     0     0   -42     0     0     0     0     0     0     0     0   -74     0     0     0   -21   -26     0     0     0     0
     0     0     0   -81     0     0   -73     0     0     0     0   -35  -100     0     0   -37     0     0     0     0     0     0   -53     0     0
   -39     0     0     0     0     0     0   -52     0     0     0   -59     0     0     0     0     0     0     0   -35     0     0     0     0   -56
     0     0     0     0   -74     0   -95     0     0   -35   -59     0     0     0    -8     0   -51     0     0     0     0     0   -10     0     0
   -38     0     0     0     0     0   -35   -75     0  -100     0     0     0   -61     0     0     0     0     0     0     0     0     0     0     0
   -55     0     0     0     0     0     0   -23     0     0     0     0   -61     0   -82     0     0   -25   -93   -29     0   -69     0     0     0
     0     0     0     0     0     0     0   -80     0     0     0    -8     0   -82     0   -13     0     0     0   -26     0   -95     0     0     0
     0   -45     0     0     0     0     0   -93   -74   -37     0     0     0     0   -13     0   -23     0     0     0     0     0     0     0   -92
     0     0     0     0     0   -61    -6     0     0     0     0   -51     0     0     0   -23     0     0     0     0   -52     0     0     0     0
     0   -26     0     0     0   -82   -80     0     0     0     0     0     0   -25     0     0     0     0     0   -41     0     0     0     0     0
   -95     0     0     0   -97     0     0     0     0     0     0     0     0   -93     0     0     0     0     0     0     0     0     0     0     0
   -81     0     0   -50     0   -41     0     0   -21     0   -35     0     0   -29   -26     0     0   -41     0     0     0     0   -94     0     0
   -38     0     0     0    -1     0     0     0   -26     0     0     0     0     0     0     0   -52     0     0     0     0   -29     0     0     0
     0     0     0     0     0     0     0   -42     0     0     0     0     0   -69   -95     0     0     0     0     0   -29     0     0     0     0
   -56     0   -14     0     0     0     0     0     0   -53     0   -10     0     0     0     0     0     0     0   -94     0     0     0     0     0
     0     0     0     0     0     0     0     0     0     0     0     0     0     0     0     0     0     0     0     0     0     0     0     0   -79
     0     0   -64     0     0     0     0     0     0     0   -56     0     0     0     0   -92     0     0     0     0     0     0     0   -79     0
